InboundTrucks  = 50;
OutboundTrucks = 50;
InboundDoors   = 4;
OutboundDoors  = 4;
ReleaseTime    = [30,75,69,16,47,117,77,60,80,74,8,77,1,116,107,60,33,70,29,24,91,60,69,107,70,60,50,81,110,19,29,81,19,111,118,66,49,94,1,85,99,8,20,97,75,5,38,99,3,105];
UnloadTime     = [25,27,21,17,33,24,24,27,24,22,10,32,20,12,25,26,24,26,12,19,20,28,26,32,31,32,11,30,17,31,27,27,11,20,17,31,27,27,10,14,22,20,11,27,17,32,34,22,11,18];
LoadTime       = [17,9,13,17,18,11,11,13,19,11,9,9,13,10,5,17,11,15,19,16,9,18,17,8,11,6,18,10,13,12,7,19,18,18,15,17,9,5,19,5,6,15,10,12,17,17,20,5,11,19];
TransferTime   = [| 5,0,0,1,0,0,2,0,0,4,0,0,3,0,0,1,0,0,5,8,0,1,12,0,4,0,0,1,6,11,2,0,0,0,0,0,1,7,0,3,0,0,5,0,0,2,0,0,0,0 | 0,5,0,0,2,7,0,2,0,0,0,0,7,0,7,0,0,0,0,0,0,0,4,8,0,1,0,0,3,0,0,0,0,0,0,0,0,4,0,0,3,0,0,4,0,0,3,0,0,2 | 0,5,5,0,0,0,0,0,2,0,0,5,0,0,3,0,0,4,0,0,3,0,0,1,0,0,2,9,0,1,0,8,4,0,0,2,0,0,0,0,0,2,0,0,5,0,0,3,0,0 | 0,0,6,1,0,0,0,0,7,2,0,0,0,0,0,0,0,0,4,0,0,5,0,0,2,0,8,0,0,0,0,0,0,2,0,0,2,5,0,1,0,0,5,0,12,3,0,0,4,0 | 0,5,0,7,2,0,0,0,0,0,5,0,0,3,0,0,0,0,0,4,11,11,2,0,0,1,0,0,3,0,0,1,0,0,0,0,0,5,0,0,4,0,0,5,0,0,3,0,0,0 | 0,0,3,0,0,0,0,0,0,10,0,5,0,0,1,0,0,4,0,0,2,0,5,1,0,0,0,0,0,1,0,0,4,5,0,0,0,0,1,0,0,2,0,0,1,0,0,0,0,0 | 4,0,0,5,0,0,5,0,0,0,0,0,1,7,0,0,0,0,4,0,0,1,0,0,3,0,0,0,9,0,3,0,0,4,0,0,0,0,5,5,0,0,3,0,0,1,0,0,4,0 | 0,1,0,0,0,0,0,4,0,0,0,0,0,3,8,0,5,0,0,4,6,0,2,0,0,0,0,0,4,0,0,5,0,0,1,0,0,1,0,0,1,0,0,1,0,9,0,0,0,0 | 0,0,1,0,0,1,0,0,5,0,0,0,0,0,2,0,0,3,0,0,2,0,0,2,0,0,0,0,7,3,0,0,1,0,0,0,0,0,3,0,0,2,0,7,0,0,5,0,0,0 | 5,0,0,1,0,0,2,0,0,4,0,0,2,6,0,1,0,0,4,0,0,1,0,0,3,0,0,4,0,0,1,0,10,5,0,0,5,0,0,0,0,0,3,0,0,2,0,0,3,0 | 9,3,0,0,0,7,0,0,0,0,3,0,0,3,0,0,5,0,0,3,0,0,3,0,0,3,0,0,2,0,0,5,0,0,0,0,0,4,0,0,2,0,0,3,0,0,2,0,0,3 | 0,0,3,0,0,1,0,0,3,0,0,5,0,0,3,12,0,2,0,0,5,0,0,2,0,0,5,0,0,0,0,0,0,0,0,1,0,0,4,9,0,2,0,0,1,0,0,4,0,0 | 0,0,0,5,0,0,1,0,10,4,0,0,3,0,0,5,0,0,0,0,5,2,0,0,3,0,0,3,0,0,0,0,0,4,0,0,1,0,0,2,0,0,2,0,0,3,0,0,3,8 | 0,2,10,0,1,6,0,1,0,0,5,0,0,5,0,0,5,0,0,5,0,11,4,10,0,2,0,0,0,0,0,0,0,0,3,0,0,2,0,0,0,0,0,2,0,0,5,0,0,2 | 0,0,5,0,7,2,0,9,2,0,0,3,0,0,5,0,0,0,0,6,1,0,0,0,8,0,0,0,0,5,7,0,4,0,11,0,0,0,3,0,0,3,0,0,5,0,0,4,0,0 | 4,0,10,3,0,0,0,0,0,1,0,0,3,0,0,4,0,0,1,0,0,0,0,0,0,0,0,0,0,0,4,0,0,2,0,10,3,0,0,5,5,0,2,0,0,3,0,0,4,0 | 0,2,0,0,5,0,0,4,0,0,3,0,9,1,11,0,4,0,0,0,0,0,3,0,0,2,0,0,4,0,0,1,0,0,5,0,0,1,0,0,1,0,0,1,0,0,2,0,0,3 | 0,0,5,0,0,5,0,0,1,0,0,2,0,0,3,0,0,4,0,0,4,5,0,5,0,0,0,0,0,4,0,0,5,0,8,2,0,0,0,12,0,1,0,0,3,0,0,4,0,0 | 4,0,0,0,0,0,3,0,0,3,0,0,0,0,0,0,0,0,5,0,0,0,0,0,4,0,0,0,0,0,5,0,8,1,0,0,5,10,0,3,0,0,1,0,12,5,0,0,3,0 | 0,4,0,8,0,0,0,5,0,0,3,0,0,4,0,0,2,0,0,4,0,0,3,0,0,0,0,0,2,0,0,0,0,9,4,10,0,4,0,0,0,0,0,3,0,0,2,0,0,1 | 0,0,0,0,0,3,0,8,3,0,0,4,0,0,4,0,0,4,0,0,5,8,0,0,0,0,2,0,0,4,0,0,2,0,0,4,0,0,1,9,0,5,0,0,1,0,0,0,0,0 | 0,0,0,1,0,0,0,0,0,3,0,0,5,0,0,4,0,0,4,0,0,1,0,0,0,0,0,2,0,0,4,0,0,1,0,0,1,0,0,3,0,0,1,7,0,1,0,0,1,0 | 0,5,5,0,5,0,0,4,0,0,3,0,0,2,0,0,1,0,0,5,9,0,2,6,0,1,0,0,4,0,0,5,0,0,1,0,0,5,0,0,1,0,0,1,0,0,3,0,0,0 | 0,0,3,0,12,5,0,0,1,0,0,2,0,0,5,0,0,0,0,0,3,0,0,4,0,0,3,0,0,3,0,0,2,0,0,3,5,0,0,0,0,5,0,0,0,0,0,4,0,0 | 1,0,0,0,0,0,0,0,0,4,0,0,4,0,9,1,0,0,0,0,0,5,0,0,3,0,0,2,0,0,4,0,0,4,7,0,1,7,0,5,0,0,5,0,0,5,0,0,2,0 | 0,2,0,11,1,0,0,2,0,0,3,0,0,0,0,0,0,0,0,4,0,0,0,0,0,1,0,0,5,0,0,4,0,0,3,0,0,2,0,0,2,0,0,3,0,0,2,0,9,0 | 0,11,0,0,0,4,0,0,3,0,0,3,0,0,2,0,0,5,0,0,4,0,0,2,0,0,4,11,0,0,0,0,5,0,6,5,0,0,0,0,0,1,0,0,3,0,0,0,0,0 | 5,0,0,2,7,0,2,0,0,4,0,0,2,0,0,1,0,0,2,0,0,4,0,6,1,0,0,2,0,0,1,0,0,1,0,0,1,0,0,4,0,0,3,0,0,4,0,0,0,0 | 0,0,0,0,2,0,0,1,0,0,5,8,0,4,0,0,3,0,0,4,12,0,0,0,0,1,0,0,1,0,0,4,0,0,4,0,0,5,0,0,0,0,0,5,0,0,0,0,0,5 | 0,0,2,0,0,3,0,0,0,0,0,1,0,0,1,5,0,3,9,0,2,7,0,1,0,0,3,0,0,2,0,0,3,0,0,1,0,0,2,0,0,5,0,0,3,0,5,5,0,0 | 5,0,0,5,0,10,1,0,0,4,0,0,0,0,0,3,0,0,4,0,6,1,0,0,5,0,0,3,0,0,0,0,0,2,0,0,4,0,0,3,0,0,3,0,0,0,0,0,3,0 | 0,0,0,10,3,0,0,2,0,0,5,0,0,2,0,0,4,0,0,4,0,0,5,0,0,3,0,0,4,0,0,4,0,0,0,0,0,0,0,0,1,0,0,0,0,0,3,0,0,4 | 0,0,1,0,0,1,6,0,2,0,0,4,0,0,0,0,0,3,0,0,2,0,10,0,0,0,3,0,0,3,0,0,1,0,0,3,0,0,0,0,0,4,0,0,1,0,0,0,0,0 | 4,0,0,5,0,0,5,0,0,0,0,0,0,0,0,0,0,0,4,0,0,2,0,0,0,0,0,2,0,0,0,0,0,2,0,0,1,0,0,2,0,0,3,7,0,1,6,0,5,0 | 0,0,0,0,1,0,0,0,0,0,4,0,0,5,0,0,2,0,0,3,0,0,4,7,0,3,0,0,1,0,0,2,0,0,0,0,0,1,0,0,5,0,0,2,6,0,3,0,0,5 | 0,0,2,0,0,5,0,0,0,0,0,5,6,0,3,0,0,4,0,0,2,0,0,4,0,0,0,6,0,5,0,0,0,0,0,2,0,0,0,0,0,5,0,0,1,0,0,3,0,0 | 5,0,0,1,0,0,2,0,0,5,7,0,0,0,0,3,0,0,5,0,0,3,0,0,4,9,0,4,0,0,3,0,0,4,0,0,0,0,0,0,0,0,3,0,0,4,0,0,1,0 | 0,0,0,0,2,0,0,3,0,0,3,0,0,3,0,0,3,0,0,0,0,10,2,0,0,5,0,0,2,0,0,1,0,0,1,0,0,3,0,0,4,0,0,4,0,0,2,0,6,5 | 0,0,3,0,0,4,0,0,1,0,0,3,0,0,0,0,0,1,0,0,4,0,0,5,0,0,1,0,0,4,0,0,3,0,6,0,0,0,1,0,0,5,0,0,2,0,0,1,0,0 | 5,0,0,0,0,9,3,0,0,0,11,0,3,0,0,1,0,0,5,0,0,5,0,0,3,0,0,2,0,5,1,0,0,2,0,0,0,0,0,0,0,0,5,0,0,0,0,0,4,0 | 0,5,0,0,5,0,0,0,0,0,0,0,0,5,0,0,0,11,0,0,0,0,2,0,0,1,0,0,0,0,0,2,0,0,1,0,0,3,0,0,5,0,0,5,0,0,0,0,10,5 | 0,0,1,0,0,1,0,0,4,0,0,2,0,0,5,0,0,3,0,0,4,0,0,2,0,0,5,0,0,2,0,0,3,0,0,0,0,0,1,0,0,3,0,0,5,0,0,5,10,0 | 4,0,0,2,0,0,0,0,0,4,0,0,1,0,0,4,0,0,3,0,0,1,0,0,3,0,0,5,0,0,4,0,0,3,0,0,4,0,11,1,0,0,2,0,0,5,0,0,1,0 | 0,2,0,0,3,0,0,0,0,0,5,12,0,0,0,0,4,0,0,3,0,0,3,0,0,1,0,0,2,0,0,0,0,0,1,0,0,5,12,0,5,0,6,3,0,0,1,0,0,5 | 0,0,2,0,0,4,0,5,1,0,0,2,0,0,3,0,7,1,0,0,3,0,0,1,0,0,5,0,0,5,0,0,0,0,0,0,7,6,3,6,0,0,0,0,5,0,0,1,0,0 | 0,0,0,1,5,7,4,0,8,4,7,0,1,0,0,4,0,0,4,0,0,0,0,0,1,6,0,4,0,0,3,0,0,0,11,0,4,0,0,0,12,0,0,0,0,2,10,0,0,0 | 0,0,0,0,0,0,0,0,0,0,5,0,0,0,0,11,2,0,0,0,0,0,5,0,0,2,0,0,1,0,0,2,0,11,4,0,0,0,10,0,2,0,0,0,0,0,2,8,0,1 | 0,0,4,0,0,2,0,0,0,0,0,5,0,0,4,0,0,4,0,0,5,0,9,2,0,0,2,0,0,0,0,8,3,0,0,1,0,0,1,0,0,3,0,0,5,0,0,1,10,0 | 4,0,0,1,7,0,1,0,0,2,0,12,0,0,0,1,0,0,2,0,0,0,11,0,5,0,0,3,0,0,1,0,0,5,0,0,2,0,0,3,0,0,0,0,0,0,0,0,0,0 | 0,0,0,0,2,0,0,1,0,0,4,0,6,4,0,0,3,11,0,4,0,0,5,0,0,2,0,0,5,0,0,1,0,0,1,0,0,3,0,12,3,0,0,5,0,0,4,0,0,3 |];
